(set-logic ALL)
(declare-fun var0 () String)
(assert (str.in_re var0 (re.++ (re.union (re.+ (re.* (re.* (re.* (re.+ (re.* (re.* (re.union (str.to_re "00") (str.to_re "1"))))))))) (re.+ (re.union (re.* (re.* (re.+ (re.+ (re.* (re.+ (str.to_re "22"))))))) (re.* (re.* (re.+ (re.+ (re.* (re.union (str.to_re "333") (str.to_re "4")))))))))) (re.* (re.+ (re.+ (re.+ (re.union (re.union (re.* (re.* (re.+ (str.to_re "555")))) (re.* (re.+ (re.* (str.to_re "66"))))) (re.union (re.+ (re.union (re.union (str.to_re "77") (str.to_re "88")) (re.union (str.to_re "999") (str.to_re "aa")))) (re.+ (re.* (re.* (str.to_re "b")))))))))))))
(assert (<= 15 (str.len var0)))
(check-sat)